GVRP/M-n101-k10-C34-V4.vrp
NAME: M-n101-k10
COMMENT: M and G instances of Bektas et al. (2011)
TYPE: GVRP
DIMENSION: 101
EDGE_WEIGHT_TYPE: EUC_2D
VEHICLES: 4
CAPACITY: 200
NODE_COORD_SECTION
1	40	50
2	45	68
3	45	70
4	42	66
5	42	68
6	42	65
7	40	69
8	40	66
9	38	68
10	38	70
11	35	66
12	35	69
13	25	85
14	22	75
15	22	85
16	20	80
17	20	85
18	18	75
19	15	75
20	15	80
21	30	50
22	30	52
23	28	52
24	28	55
25	25	50
26	25	52
27	25	55
28	23	52
29	23	55
30	20	50
31	20	55
32	10	35
33	10	40
34	8	40
35	8	45
36	5	35
37	5	45
38	2	40
39	0	40
40	0	45
41	35	30
42	35	32
43	33	32
44	33	35
45	32	30
46	30	30
47	30	32
48	30	35
49	28	30
50	28	35
51	26	32
52	25	30
53	25	35
54	44	5
55	42	10
56	42	15
57	40	5
58	40	15
59	38	5
60	38	15
61	35	5
62	50	30
63	50	35
64	50	40
65	48	30
66	48	40
67	47	35
68	47	40
69	45	30
70	45	35
71	95	30
72	95	35
73	53	30
74	92	30
75	53	35
76	45	65
77	90	35
78	88	30
79	88	35
80	87	30
81	85	25
82	85	35
83	75	55
84	72	55
85	70	58
86	68	60
87	66	55
88	65	55
89	65	60
90	63	58
91	60	55
92	60	60
93	67	85
94	65	85
95	65	82
96	62	80
97	60	80
98	60	85
99	58	75
100	55	80
101	55	85
DEMAND_SECTION
1	0
2	20
3	20
4	15
5	15
6	15
7	15
8	15
9	12
10	12
11	12
12	12
13	20
14	25
15	25
16	40
17	25
18	25
19	15
20	15
21	15
22	15
23	15
24	15
25	15
26	15
27	15
28	15
29	15
30	15
31	15
32	25
33	25
34	25
35	15
36	25
37	15
38	23
39	23
40	23
41	13
42	12
43	12
44	12
45	13
46	13
47	13
48	12
49	13
50	10
51	10
52	13
53	10
54	30
55	30
56	20
57	30
58	20
59	25
60	20
61	25
62	23
63	22
64	22
65	10
66	22
67	10
68	22
69	10
70	10
71	20
72	20
73	23
74	20
75	23
76	15
77	20
78	10
79	20
80	10
81	10
82	20
83	15
84	15
85	26
86	26
87	15
88	15
89	26
90	10
91	10
92	10
93	23
94	23
95	23
96	20
97	20
98	20
99	20
100	20
101	20
MUTUALLY_EXCLUSIVE_GROUP_SECTION
1	71	72	74
2	39	38	40
3	101	98	100
4	54	55	57
5	20	19
6	64	63	66	68
7	83	84
8	26	21	22	23	24	25	27	28	30
9	4	5	6	7	8	76
10	46	41	45	47	49	52
11	92	90	91
12	60	56	58
13	93	94	95
14	13
15	32	33	34	36
16	69	65	67	70
17	81
18	82	77	79
19	99
20	14	18
21	35	37
22	61	59
23	12	9	10	11
24	73	62	75
25	86	85	89
26	53	50	51
27	31	29
28	44	42	43	48
29	78	80
30	88	87
31	96	97
32	3	2
33	16
34	17	15
DEPOT_SECTION
1
EOF
