GVRP/M-n101-k10-C34-V4.sol
Route #1: 34 37 31 50 51 58 54 57 42
Route #2: 90 86 84 83 76 73 77 80 74 66 67
Route #3: 75 1 99 94 96 98
Route #4: 21 28 18 17 15 14 12 10
Cost: 458
Comment: Known optimal, see Freitas et al. (2023; https://doi.org/10.1016/j.cor.2022.106040) for details
